Minimize
  - 31 y_0 - 37 y_1 - 50 y_2 - 14 y_3 - 50 y_4 - 33 y_5 - 40 y_6 - 28 y_7
   - 46 y_8 - 32 y_9 - 47 y_10 - 10 y_11 - 68 y_12 - 15 y_13 - 20 y_14
   - 45 y_15 - 60 y_16 - 47 y_17 - 40 y_18 - 48 y_19 - 31 y_20 - 49 y_21
   - 19 y_22 - 36 y_23 - 46 y_24 - 21 y_25 - 56 y_26 - 43 y_27 - 34 y_28
   - 45 y_29 - 53 y_30 - 6 y_31 - 36 y_32 - 55 y_33 - 51 y_34 - 34 y_35
   - 35 y_36 - 64 y_37 - 50 y_38 - 45 y_39 - 55 y_40 - 32 y_41 - 55 y_42
   - 36 y_43 - 59 y_44 - 42 y_45 - 45 y_46 - 46 y_47 - 16 y_48 - 69 y_49
   - 48 y_50 - 46 y_51 - 44 y_52 - 48 y_53 - 14 y_54 - 38 y_55 - 34 y_56
   - 40 y_57 - 45 y_59 - 32 y_60 - 44 y_61 - 20 y_62 - 27 y_63 - 68 y_64
   - 7 y_65 - 39 y_66 - 45 y_67 - 28 y_68 - 48 y_69 - 25 y_70 - 59 y_71
   - 64 y_72 - 42 y_73 - 53 y_74 - 62 y_75 - 24 y_76 - 42 y_77 - 48 y_78
   - 44 y_79 - 49 y_80 - 46 y_81 - 60 y_82 - 31 y_83 - 30 y_84 - 48 y_85
   - 8 y_86 - 38 y_87 - 56 y_88 - 43 y_89 - 25 y_90 - 48 y_91 - 38 y_92
   - 9 y_93 - 29 y_94 - 54 y_95 - 27 y_96 - 29 y_97 - 52 y_98 - 44 y_99
   + 3967 Constant
Subject To
 c_0: y_22 = 1
 c_1_0: y_0 + y_23 + y_96 >= 1
 c_1_1: y_1 + y_6 + y_9 + y_41 + y_60 + y_73 >= 1
 c_1_2: y_2 + y_10 + y_38 + y_53 + y_57 >= 1
 c_1_3: y_3 + y_25 >= 1
 c_1_4: y_4 + y_6 + y_24 + y_40 + y_73 >= 1
 c_1_5: y_5 + y_43 + y_60 >= 1
 c_1_6: y_1 + y_4 + y_6 + y_9 + y_24 + y_41 + y_60 + y_73 >= 1
 c_1_7: y_7 + y_70 + y_94 >= 1
 c_1_8: y_8 + y_91 >= 1
 c_1_9: y_1 + y_6 + y_9 + y_41 + y_60 >= 1
 c_1_10: y_2 + y_10 + y_53 + y_57 + y_78 >= 1
 c_1_11: y_11 + y_31 + y_58 >= 1
 c_1_12: y_12 + y_37 + y_64 + y_72 + y_75 >= 1
 c_1_13: y_13 + y_14 + y_54 + y_65 + y_86 + y_93 >= 1
 c_1_14: y_13 + y_14 + y_54 >= 1
 c_1_15: y_15 + y_59 + y_61 >= 1
 c_1_16: y_16 + y_72 + y_75 + y_88 >= 1
 c_1_17: y_17 + y_24 + y_40 + y_73 >= 1
 c_1_18: y_18 + y_46 + y_47 >= 1
 c_1_19: y_19 + y_99 >= 1
 c_1_20: y_20 + y_90 + y_94 + y_97 >= 1
 c_1_21: y_21 + y_46 + y_50 + y_80 + y_88 >= 1
 c_1_22: y_22 >= 1
 c_1_23: y_0 + y_23 >= 1
 c_1_24: y_4 + y_6 + y_17 + y_24 + y_40 + y_73 >= 1
 c_1_25: y_3 + y_25 + y_90 >= 1
 c_1_26: y_26 + y_33 + y_38 + y_82 >= 1
 c_1_27: y_27 + y_67 >= 1
 c_1_28: y_28 + y_32 + y_35 + y_77 + y_89 + y_92 >= 1
 c_1_29: y_29 + y_39 >= 1
 c_1_30: y_30 + y_34 >= 1
 c_1_31: y_11 + y_31 + y_58 >= 1
 c_1_32: y_28 + y_32 + y_35 + y_51 + y_77 + y_89 + y_92 >= 1
 c_1_33: y_26 + y_33 + y_42 + y_51 >= 1
 c_1_34: y_30 + y_34 >= 1
 c_1_35: y_28 + y_32 + y_35 + y_77 + y_89 + y_92 >= 1
 c_1_36: y_36 + y_55 + y_84 >= 1
 c_1_37: y_12 + y_37 + y_64 + y_72 + y_75 + y_88 >= 1
 c_1_38: y_2 + y_26 + y_38 >= 1
 c_1_39: y_29 + y_39 >= 1
 c_1_40: y_4 + y_17 + y_24 + y_40 >= 1
 c_1_41: y_1 + y_6 + y_9 + y_41 + y_60 + y_73 >= 1
 c_1_42: y_33 + y_42 + y_51 + y_69 + y_71 >= 1
 c_1_43: y_5 + y_43 >= 1
 c_1_44: y_44 >= 1
 c_1_45: y_45 + y_66 + y_87 >= 1
 c_1_46: y_18 + y_21 + y_46 + y_47 >= 1
 c_1_47: y_18 + y_46 + y_47 >= 1
 c_1_48: y_48 + y_62 + y_76 + y_93 >= 1
 c_1_49: y_49 >= 1
 c_1_50: y_21 + y_50 + y_80 + y_88 >= 1
 c_1_51: y_32 + y_33 + y_42 + y_51 + y_69 + y_77 + y_89 >= 1
 c_1_52: y_52 >= 1
 c_1_53: y_2 + y_10 + y_53 + y_57 + y_78 >= 1
 c_1_54: y_13 + y_14 + y_54 + y_65 + y_86 + y_93 >= 1
 c_1_55: y_36 + y_55 + y_84 >= 1
 c_1_56: y_56 + y_79 + y_92 >= 1
 c_1_57: y_2 + y_10 + y_53 + y_57 >= 1
 c_1_58: y_11 + y_31 + y_58 + y_65 + y_86 + y_93 >= 1
 c_1_59: y_15 + y_59 + y_61 >= 1
 c_1_60: y_1 + y_5 + y_6 + y_9 + y_41 + y_60 + y_73 >= 1
 c_1_61: y_15 + y_59 + y_61 >= 1
 c_1_62: y_48 + y_62 + y_76 >= 1
 c_1_63: y_63 + y_83 + y_96 >= 1
 c_1_64: y_12 + y_37 + y_64 + y_72 + y_75 >= 1
 c_1_65: y_13 + y_54 + y_58 + y_65 + y_86 + y_93 >= 1
 c_1_66: y_45 + y_66 + y_87 >= 1
 c_1_67: y_27 + y_67 >= 1
 c_1_68: y_68 >= 1
 c_1_69: y_42 + y_51 + y_69 + y_77 + y_89 + y_98 >= 1
 c_1_70: y_7 + y_70 >= 1
 c_1_71: y_42 + y_71 + y_98 >= 1
 c_1_72: y_12 + y_16 + y_37 + y_64 + y_72 + y_75 + y_88 >= 1
 c_1_73: y_1 + y_4 + y_6 + y_17 + y_24 + y_41 + y_60 + y_73 >= 1
 c_1_74: y_74 >= 1
 c_1_75: y_12 + y_16 + y_37 + y_64 + y_72 + y_75 + y_88 >= 1
 c_1_76: y_48 + y_62 + y_76 >= 1
 c_1_77: y_28 + y_32 + y_35 + y_51 + y_69 + y_77 + y_89 + y_92 >= 1
 c_1_78: y_10 + y_53 + y_78 >= 1
 c_1_79: y_56 + y_79 + y_95 >= 1
 c_1_80: y_21 + y_50 + y_80 + y_88 >= 1
 c_1_81: y_81 + y_85 >= 1
 c_1_82: y_26 + y_82 >= 1
 c_1_83: y_63 + y_83 + y_96 >= 1
 c_1_84: y_36 + y_55 + y_84 >= 1
 c_1_85: y_81 + y_85 >= 1
 c_1_86: y_13 + y_54 + y_58 + y_65 + y_86 + y_93 >= 1
 c_1_87: y_45 + y_66 + y_87 + y_99 >= 1
 c_1_88: y_16 + y_21 + y_37 + y_50 + y_72 + y_75 + y_80 + y_88 >= 1
 c_1_89: y_28 + y_32 + y_35 + y_51 + y_69 + y_77 + y_89 + y_92 >= 1
 c_1_90: y_20 + y_25 + y_90 + y_94 + y_97 >= 1
 c_1_91: y_8 + y_91 >= 1
 c_1_92: y_28 + y_32 + y_35 + y_56 + y_77 + y_89 + y_92 >= 1
 c_1_93: y_13 + y_48 + y_54 + y_58 + y_65 + y_86 + y_93 >= 1
 c_1_94: y_7 + y_20 + y_90 + y_94 + y_97 >= 1
 c_1_95: y_79 + y_95 + y_98 >= 1
 c_1_96: y_0 + y_63 + y_83 + y_96 >= 1
 c_1_97: y_20 + y_90 + y_94 + y_97 >= 1
 c_1_98: y_69 + y_71 + y_95 + y_98 >= 1
 c_1_99: y_19 + y_87 + y_99 >= 1
Bounds
 Constant = 1
Binaries
 y_0 y_1 y_2 y_3 y_4 y_5 y_6 y_7 y_8 y_9 y_10 y_11 y_12 y_13 y_14 y_15 y_16
 y_17 y_18 y_19 y_20 y_21 y_22 y_23 y_24 y_25 y_26 y_27 y_28 y_29 y_30 y_31
 y_32 y_33 y_34 y_35 y_36 y_37 y_38 y_39 y_40 y_41 y_42 y_43 y_44 y_45 y_46
 y_47 y_48 y_49 y_50 y_51 y_52 y_53 y_54 y_55 y_56 y_57 y_58 y_59 y_60 y_61
 y_62 y_63 y_64 y_65 y_66 y_67 y_68 y_69 y_70 y_71 y_72 y_73 y_74 y_75 y_76
 y_77 y_78 y_79 y_80 y_81 y_82 y_83 y_84 y_85 y_86 y_87 y_88 y_89 y_90 y_91
 y_92 y_93 y_94 y_95 y_96 y_97 y_98 y_99
End
